(set-info :smt-lib-version 2.6)
(set-logic QF_UFLRA)
(set-info :source |
MathSat group

|)
(set-info :category "random")
(set-info :status sat)
(declare-fun x0 () Real)
(declare-fun x1 () Real)
(declare-fun x2 () Real)
(declare-fun x3 () Real)
(declare-fun x4 () Real)
(declare-fun x5 () Real)
(declare-fun x6 () Real)
(declare-fun x7 () Real)
(declare-fun x8 () Real)
(declare-fun x9 () Real)
(declare-fun x10 () Real)
(declare-fun x11 () Real)
(declare-fun x12 () Real)
(declare-fun x13 () Real)
(declare-fun x14 () Real)
(declare-fun x15 () Real)
(declare-fun x16 () Real)
(declare-fun x17 () Real)
(declare-fun x18 () Real)
(declare-fun x19 () Real)
(declare-fun x20 () Real)
(declare-fun x21 () Real)
(declare-fun x22 () Real)
(declare-fun x23 () Real)
(declare-fun x24 () Real)
(declare-fun x25 () Real)
(declare-fun x26 () Real)
(declare-fun x27 () Real)
(declare-fun x28 () Real)
(declare-fun x29 () Real)
(declare-fun x30 () Real)
(declare-fun x31 () Real)
(declare-fun x32 () Real)
(declare-fun x33 () Real)
(declare-fun x34 () Real)
(declare-fun x35 () Real)
(declare-fun x36 () Real)
(declare-fun x37 () Real)
(declare-fun x38 () Real)
(declare-fun x39 () Real)
(declare-fun x40 () Real)
(declare-fun x41 () Real)
(declare-fun x42 () Real)
(declare-fun x43 () Real)
(declare-fun x44 () Real)
(declare-fun x45 () Real)
(declare-fun x46 () Real)
(declare-fun x47 () Real)
(declare-fun x48 () Real)
(declare-fun x49 () Real)
(declare-fun f0_1 (Real) Real)
(declare-fun f0_2 (Real Real) Real)
(declare-fun f0_3 (Real Real Real) Real)
(declare-fun f0_4 (Real Real Real Real) Real)
(declare-fun P0 () Bool)
(declare-fun P1 () Bool)
(declare-fun P2 () Bool)
(declare-fun P3 () Bool)
(declare-fun P4 () Bool)
(declare-fun P5 () Bool)
(declare-fun P6 () Bool)
(declare-fun P7 () Bool)
(declare-fun P8 () Bool)
(declare-fun P9 () Bool)
(declare-fun P10 () Bool)
(declare-fun P11 () Bool)
(declare-fun P12 () Bool)
(declare-fun P13 () Bool)
(declare-fun P14 () Bool)
(declare-fun P15 () Bool)
(declare-fun P16 () Bool)
(declare-fun P17 () Bool)
(declare-fun P18 () Bool)
(declare-fun P19 () Bool)
(declare-fun P20 () Bool)
(declare-fun P21 () Bool)
(declare-fun P22 () Bool)
(declare-fun P23 () Bool)
(declare-fun P24 () Bool)
(declare-fun P25 () Bool)
(declare-fun P26 () Bool)
(declare-fun P27 () Bool)
(declare-fun P28 () Bool)
(declare-fun P29 () Bool)
(declare-fun P30 () Bool)
(declare-fun P31 () Bool)
(declare-fun P32 () Bool)
(declare-fun P33 () Bool)
(declare-fun P34 () Bool)
(declare-fun P35 () Bool)
(declare-fun P36 () Bool)
(declare-fun P37 () Bool)
(declare-fun P38 () Bool)
(declare-fun P39 () Bool)
(declare-fun P40 () Bool)
(declare-fun P41 () Bool)
(declare-fun P42 () Bool)
(declare-fun P43 () Bool)
(declare-fun P44 () Bool)
(declare-fun P45 () Bool)
(declare-fun P46 () Bool)
(declare-fun P47 () Bool)
(declare-fun P48 () Bool)
(declare-fun P49 () Bool)
(assert (let ((?v_75 (* 18 x12)) (?v_195 (* 19 x27)) (?v_194 (* 13 x47))) (let ((?v_211 (<= (+ (- ?v_194 ?v_195) (* 10 x30)) 24)) (?v_28 (* 7 x49)) (?v_46 (* 27 x21)) (?v_73 (< (+ (- (* 25 x28) (* 8 x7)) (* 5 x14)) 10)) (?v_110 (= (- (- (* 22 x36) (* 26 x38)) (* 19 x10)) 24)) (?v_18 (* 26 x7)) (?v_183 (<= (- (- (* 25 x20) (* 5 x48)) (* 7 x29)) 0)) (?v_125 (= (+ (- (* 3 x48) (* 15 x47)) (* 12 x36)) 24)) (?v_1 (< (- (- (* 27 x29) (* 25 x22)) (* 17 x3)) 1)) (?v_120 (< (+ (- (* 2 x27) (* 19 x18)) (* 13 x9)) 24)) (?v_113 (< (+ (- (* 2 x29) (* 22 x16)) (* 11 x39)) 20)) (?v_180 (= x33 (f0_1 x25))) (?v_2 (f0_1 x9))) (let ((?v_20 (= x17 ?v_2)) (?v_3 (= (f0_2 x23 x30) x12)) (?v_191 (f0_1 x10))) (let ((?v_249 (= ?v_191 (f0_2 x36 x46))) (?v_166 (distinct x19 x36)) (?v_223 (distinct (f0_2 x30 x29) x3)) (?v_33 (= (f0_2 x33 x9) x11)) (?v_147 (distinct (f0_2 x28 x18) (f0_2 x46 x29))) (?v_26 (f0_1 x38))) (let ((?v_70 (= (f0_1 x41) ?v_26)) (?v_7 (distinct x11 (f0_2 x33 x2))) (?v_76 (distinct x0 (f0_1 x28))) (?v_112 (distinct (f0_2 x39 x27) (f0_1 x8))) (?v_139 (= (f0_2 x19 x37) (f0_2 x44 x13))) (?v_93 (f0_1 x46))) (let ((?v_38 (= x37 ?v_93)) (?v_78 (= x13 ?v_2)) (?v_220 (distinct (f0_2 x42 x44) x20)) (?v_83 (= (f0_2 x25 x28) x39)) (?v_15 (distinct (f0_1 x6) (f0_2 x8 x37))) (?v_51 (f0_1 x23))) (let ((?v_89 (distinct (f0_2 x38 x39) ?v_51)) (?v_48 (= (f0_2 x41 x13) (f0_1 x2))) (?v_109 (f0_1 x17))) (let ((?v_162 (= (f0_2 x29 x18) ?v_109)) (?v_151 (= x43 x44)) (?v_127 (distinct (f0_1 x30) ?v_93)) (?v_85 (f0_1 x5))) (let ((?v_55 (= ?v_85 (f0_2 x17 x21))) (?v_13 (= (f0_1 x7) (f0_2 x11 x6))) (?v_155 (distinct x19 ?v_85)) (?v_30 (distinct (f0_1 x31) (f0_2 x31 x5))) (?v_68 (distinct x24 x25)) (?v_17 (distinct x49 x36)) (?v_102 (distinct ?v_109 (f0_2 x8 x29))) (?v_238 (= (f0_2 x31 x14) (f0_2 x1 x15))) (?v_178 (distinct x43 ?v_191)) (?v_253 (distinct (f0_2 x34 x43) (f0_1 x34))) (?v_185 (distinct x8 (f0_2 x23 x41))) (?v_222 (distinct (f0_2 x46 x10) ?v_85)) (?v_69 (distinct ?v_26 (f0_2 x47 x11))) (?v_47 (distinct (f0_2 x24 x2) (f0_2 x44 x9))) (?v_32 (= (f0_2 x20 x2) x49)) (?v_60 (= x19 (f0_1 x21))) (?v_152 (distinct x26 (f0_1 x15))) (?v_137 (distinct (f0_2 x29 x46) (f0_1 x3))) (?v_50 (distinct (f0_2 x40 x38) x9)) (?v_22 (= x12 x5)) (?v_104 (distinct ?v_51 (f0_2 x45 x13))) (?v_216 (distinct x36 x34)) (?v_35 (= (f0_1 x4) (f0_1 x11))) (?v_80 (= (f0_2 x30 x23) x28)) (?v_209 (= (f0_2 x10 x38) (f0_2 x10 x42))) (?v_214 (= x7 (f0_1 x47))) (?v_176 (= x9 x16)) (?v_71 (not P11)) (?v_27 (not ?v_1))) (let ((?v_4 (not ?v_47)) (?v_91 (not P30)) (?v_10 (not ?v_214)) (?v_62 (not ?v_78)) (?v_66 (not ?v_3)) (?v_174 (not ?v_33)) (?v_95 (not ?v_73)) (?v_236 (not P41)) (?v_24 (not P35)) (?v_202 (not ?v_22)) (?v_90 (not P25)) (?v_148 (not P12)) (?v_74 (not ?v_30)) (?v_39 (not ?v_180)) (?v_31 (not P48)) (?v_126 (not ?v_15)) (?v_97 (not P32)) (?v_16 (not ?v_238)) (?v_23 (not ?v_17)) (?v_49 (not ?v_253)) (?v_58 (not ?v_20)) (?v_123 (not P37)) (?v_25 (not ?v_139)) (?v_141 (not P19)) (?v_64 (not ?v_216)) (?v_150 (not P9)) (?v_34 (not P4)) (?v_65 (not P15)) (?v_172 (not ?v_209)) (?v_159 (not ?v_147)) (?v_77 (not P14)) (?v_134 (not ?v_38)) (?v_86 (not ?v_223)) (?v_227 (not ?v_125)) (?v_63 (not ?v_112)) (?v_163 (not P0)) (?v_173 (not ?v_80)) (?v_61 (not ?v_48)) (?v_118 (not P7)) (?v_56 (not ?v_32)) (?v_131 (not ?v_55)) (?v_72 (not P20)) (?v_105 (not ?v_151)) (?v_231 (not P36)) (?v_233 (not ?v_176)) (?v_143 (not P45)) (?v_108 (not P33)) (?v_92 (not ?v_60)) (?v_119 (not ?v_185)) (?v_103 (not ?v_220)) (?v_170 (not P49)) (?v_111 (not ?v_69)) (?v_101 (not ?v_70)) (?v_219 (not P13)) (?v_146 (not P17)) (?v_140 (not ?v_76)) (?v_106 (not P1)) (?v_82 (not P28)) (?v_129 (not P31)) (?v_100 (not P34)) (?v_193 (not P44)) (?v_246 (not P39)) (?v_226 (not P6)) (?v_188 (not ?v_13)) (?v_207 (not P5)) (?v_158 (not P18)) (?v_218 (not ?v_102)) (?v_117 (not P29)) (?v_184 (not ?v_68)) (?v_208 (not P47)) (?v_124 (not P2)) (?v_243 (not ?v_162)) (?v_248 (not ?v_113)) (?v_138 (not P24)) (?v_198 (not P21)) (?v_171 (not ?v_35)) (?v_228 (not P42)) (?v_165 (not ?v_127)) (?v_247 (not ?v_50)) (?v_135 (not P38)) (?v_205 (not ?v_83)) (?v_133 (not P22)) (?v_160 (not ?v_137)) (?v_245 (not P46)) (?v_200 (not P40)) (?v_255 (not ?v_110)) (?v_186 (not ?v_89)) (?v_240 (not ?v_120)) (?v_189 (not P27)) (?v_212 (not ?v_7)) (?v_179 (not P26)) (?v_199 (not ?v_222)) (?v_217 (not P16)) (?v_192 (not ?v_183)) (?v_204 (not ?v_152)) (?v_234 (not ?v_249)) (?v_225 (not ?v_178)) (?v_203 (not ?v_155)) (?v_230 (not ?v_104)) (?v_257 (not P3)) (?v_250 (not P8)) (?v_237 (not ?v_166)) (?v_252 (not P10)) (?v_242 (not ?v_211)) (?v_260 (not P23)) (?v_258 (not P43)) (?v_54 (<= (+ (* 16 x39) (* 16 x21) (* 7 x6)) 23))) (let ((?v_5 (not ?v_54)) (?v_0 (<= (+ (* 10 x46) (* 4 x28) (* 2 x5)) 25)) (?v_14 (<= (- (- 0 (* 7 x7)) (* 14 x42)) 8)) (?v_40 (<= (- (* 18 x43) (* 27 x11)) 9)) (?v_43 (< (+ (* 26 x11) (* 4 x44) (* 18 x25)) 8))) (let ((?v_42 (not ?v_43)) (?v_169 (not ?v_40)) (?v_201 (<= (+ ?v_46 (* 26 x13) x30) 4))) (let ((?v_107 (not ?v_201)) (?v_262 (< (+ (* 13 x21) (* 19 x11) (* 4 x47)) 25))) (let ((?v_197 (not ?v_262)) (?v_232 (not ?v_14)) (?v_261 (not ?v_0)) (?v_213 (<= (+ (* 2 x22) (* 6 x18) (* 16 x38)) 14))) (let ((?v_215 (not ?v_213)) (?v_12 (< (- (+ (* (- 23) x13) (* 9 x27)) (* 13 x29)) (- 17))) (?v_132 (< (- (- (* 27 x5) ?v_46) (* 22 x22)) (- 27)))) (let ((?v_115 (not ?v_132)) (?v_81 (< (- (- (* 22 x14) (* 17 x33)) (* 24 x5)) (- 27)))) (let ((?v_128 (not ?v_81)) (?v_21 (distinct (+ (* (- 17) x27) (* 24 x36) (* 16 x27)) 16))) (let ((?v_44 (not ?v_21)) (?v_6 (< (- (- (* 26 x41) (* 16 x8)) (* 2 x31)) (- 2))) (?v_52 (< (+ (* (- 1) x30) (* 13 x18) ?v_75) 11))) (let ((?v_8 (not ?v_6)) (?v_9 (< (+ (- (* 21 x10) (* 15 x34)) x40) (- 3)))) (let ((?v_11 (not ?v_9)) (?v_241 (not ?v_12)) (?v_45 (<= (+ (- (* 10 x9) (* 7 x5)) (* 8 x29)) (- 10))) (?v_142 (= (+ (- (* 15 x40) ?v_28) (* 17 x45)) (- 19)))) (let ((?v_84 (not ?v_142)) (?v_96 (<= (- (- (* (- 11) x36) (* 5 x15)) (* 22 x17)) (- 14))) (?v_67 (< (+ (* (- 23) x43) (* 5 x40) ?v_18) 16)) (?v_79 (<= (+ (- (* (- 9) x13) (* 20 x24)) (* 5 x26)) 19)) (?v_116 (< (+ (- (* (- 1) x8) (* 18 x17)) (* 27 x1)) 2)) (?v_57 (<= (+ (* (- 19) x36) (* 21 x16) ?v_18) 12))) (let ((?v_29 (not ?v_57)) (?v_187 (< (- (- (* 5 x33) (* 19 x38)) (* 4 x41)) (- 7)))) (let ((?v_19 (not ?v_187)) (?v_196 (<= (- (+ (* 15 x31) (* 11 x15)) (* 3 x31)) (- 13)))) (let ((?v_175 (not ?v_196)) (?v_224 (<= (- (+ (* (- 26) x32) (* 27 x23)) (* 13 x48)) (- 15)))) (let ((?v_99 (not ?v_224)) (?v_98 (= (- (- (* 6 x20) (* 25 x29)) (* 9 x49)) (- 4))) (?v_157 (= (- (+ (* 18 x42) x29) (* 3 x16)) (- 7)))) (let ((?v_130 (not ?v_157)) (?v_36 (<= (+ (- (* (- 27) x47) ?v_28) (* 7 x40)) 7)) (?v_167 (distinct (+ (* 11 x22) (* 17 x2) (* 4 x48)) (- 18)))) (let ((?v_37 (not ?v_36)) (?v_181 (<= (+ (- (* 5 x11) (* 5 x9)) (* 7 x25)) (- 10)))) (let ((?v_41 (not ?v_181)) (?v_59 (<= (- (- (* (- 18) x44) (* 19 x1)) (* 19 x35)) (- 17)))) (let ((?v_164 (not ?v_59)) (?v_136 (not ?v_45)) (?v_87 (< (+ (- (* (- 24) x45) (* 21 x41)) (* 15 x42)) 19)) (?v_53 (distinct (- (+ (* 26 x14) (* 20 x38)) x47) (- 19))) (?v_94 (<= (- (+ (* (- 1) x46) (* 6 x36)) (* 21 x6)) 13)) (?v_88 (<= (- (- (* (- 7) x17) ?v_75) (* 16 x17)) (- 7))) (?v_149 (= (+ (- (* (- 1) x38) (* 6 x32)) (* 23 x33)) 2))) (let ((?v_221 (not ?v_149)) (?v_114 (not ?v_87)) (?v_122 (<= (- (+ (* (- 1) x10) ?v_195) (* 25 x40)) (- 10))) (?v_190 (not ?v_52)) (?v_145 (not ?v_94)) (?v_182 (not ?v_98)) (?v_121 (not ?v_88)) (?v_259 (not ?v_53)) (?v_154 (<= (- (+ (* (- 11) x9) (* 10 x31)) (* 11 x29)) 24))) (let ((?v_144 (not ?v_154)) (?v_161 (not ?v_116)) (?v_153 (not ?v_79)) (?v_156 (<= (- (+ (* (- 6) x45) (* 21 x47)) (* 14 x8)) (- 7))) (?v_177 (not ?v_122)) (?v_206 (<= (- (+ (* 24 x40) ?v_194) (* 27 x42)) (- 11)))) (let ((?v_168 (not ?v_206)) (?v_229 (not ?v_156)) (?v_244 (not ?v_96)) (?v_235 (distinct (+ (* 22 x25) (* 16 x36) (* 6 x16)) (- 17))) (?v_210 (not ?v_167)) (?v_239 (<= (- (- (* 9 x6) 0) (* 12 x31)) (- 18))) (?v_254 (not ?v_67))) (let ((?v_251 (not ?v_239)) (?v_256 (not ?v_235))) (and (and (and (and (and (and (and (and (and (and (and (and (and (and (and (and (and (and (and (and (and (and (and (and (and (and (and (and (and (and (and (and (and (and (and (and (and (and (and (and (and (and (and (and (and (and (and (and (and (and (and (and (and (and (and (and (and (and (and (and (and (and (and (and (and (and (and (and (and (and (and (and (and (and (and (and (and (and (and (and (and (and (and (and (and (and (and (and (and (and (and (and (and (and (and (and (and (and (and (and (and (and (and (and (and (and (and (and (and (and (and (and (and (and (and (and (and (and (and (and (and (and (and (and (and (and (and (and (and (and (and (and (and (and (and (and (and (and (and (and (and (and (and (and (and (and (and (and (and (and (and (and (and (and (and (and (and (and (and (and (and (and (and (and (and (and (and (and (and (and (and (and (and (and (and (and (and (and (and (and (and (and (and (and (and (and (and (and (and (and (and (and (and (and (and (and (and (and (and (and (and (and (and (and (and (and (and (and (and (and (and (and (and (and (and (and (and (and (and (and (and (and (and (and (and (and (and (and (and (and (and (and (and (and (and (and (and (and (and (and (and (and (and (and (and (and (and (and (and (and (and (and (and (and (and (and (and (and (and (and (and (and (and (and (and (and (and (and (and (and (and (and (and (and (and (and (and (and (and (and (and (and (and (and (and (and (and (and (and (and (and (and (and (and (and (and (and (and (and (and (and (and (and (and (and (and (and (and (and (and (and (and (and (and (and (and (and (and (and (and (and (and (and (and (and (and (and (and (and (and (and (and (and (and (and (and (and (and (and (and (and (and (and (and (and (and (and (and (and (and (and (and (and (and (and (and (and (and (and (and (and (and (and (and (and (and (and (and (and (and (and (and (and (and (and (and (and (and (and (and (and (and (and (and (and (and (and (and (and (and (and (and (and (and (and (and (and (and (and (and (and (and (and (and (and (and (and (and (and (and (and (and (and (and (and (and (and (and (and (and (and (and (and (and (and (and (and (and (and (and (and (and (and (and (and (and (and (and (and (and (and (and (and (and (and (and (and (and (and (and (and (and (and (and (and (and (and (and (and (and (and (and (and (and (and (and (and (and (and (and (and (and (and (and (and (and (and (and (and (and (and (and (and (and (and (and (and (and (and (and (and (and (and (and (and (and (and (and (and (and (and (and (and (and (and (and (and (and (and (and (and (and (and (and (and (and (and (and (and (and (and (and (and (and (and (and (and (and (and (and (and (and (and (and (and (and (and (and (and (and (and (and (and (and (and (and (and (and (and (and (and (and (and (and (and (and (and (and (and (and (and (and (and (and (and (and (and (and (and (and (and (and (and (and (and (and (and (and (and (and (and (and (and (and (and (and (and (and (and (and (and (and (and (and (and (and (and (and (and (or (or ?v_15 ?v_71) ?v_3) (or (or ?v_27 ?v_5) ?v_48)) (or (or ?v_4 ?v_91) ?v_10)) (or (or ?v_0 ?v_12) ?v_115)) (or (or ?v_13 ?v_0) ?v_1)) (or (or ?v_7 P37) ?v_62)) (or (or ?v_35 ?v_128) P28)) (or (or P36 ?v_20) P30)) (or (or P14 ?v_66) ?v_32)) (or (or ?v_174 ?v_4) ?v_44)) (or (or ?v_5 P33) ?v_6)) (or (or ?v_17 ?v_52) ?v_8)) (or (or ?v_50 ?v_7) ?v_9)) (or (or P5 ?v_8) ?v_95)) (or (or ?v_11 ?v_236) ?v_10)) (or (or ?v_11 ?v_14) ?v_241)) (or (or ?v_38 ?v_45) ?v_13)) (or (or P4 ?v_24) ?v_202)) (or (or ?v_90 ?v_148) P4)) (or (or ?v_9 ?v_74) P8)) (or (or ?v_84 ?v_39) ?v_31)) (or (or P10 ?v_14) ?v_96)) (or (or ?v_126 P48) ?v_67)) (or (or ?v_79 ?v_97) ?v_16)) (or (or ?v_16 ?v_23) ?v_10)) (or (or ?v_116 ?v_104) ?v_29)) (or (or ?v_19 ?v_19) P35)) (or (or P3 ?v_49) ?v_58)) (or (or P13 ?v_123) ?v_55)) (or (or P12 ?v_175) ?v_99)) (or (or ?v_70 ?v_21) ?v_22)) (or (or P31 ?v_98) P3)) (or (or ?v_8 ?v_130) ?v_25)) (or (or ?v_23 ?v_24) ?v_25)) (or (or P15 ?v_69) ?v_40)) (or (or ?v_27 ?v_36) ?v_166)) (or (or ?v_29 ?v_141) ?v_42)) (or (or ?v_30 ?v_20) ?v_64)) (or (or P39 ?v_167) ?v_150)) (or (or ?v_34 ?v_31) ?v_32)) (or (or ?v_65 ?v_33) ?v_172)) (or (or P5 ?v_159) ?v_77)) (or (or ?v_34 ?v_35) ?v_37)) (or (or ?v_41 ?v_37) ?v_27)) (or (or ?v_134 ?v_39) ?v_169)) (or (or ?v_164 ?v_41) ?v_86)) (or (or P39 ?v_41) P46)) (or (or ?v_60 P45) ?v_42)) (or (or ?v_227 ?v_43) ?v_83)) (or (or ?v_63 ?v_178) ?v_44)) (or (or P31 ?v_136) ?v_163)) (or (or ?v_173 ?v_107) ?v_47)) (or (or ?v_61 P13) ?v_68)) (or (or ?v_87 ?v_53) ?v_118)) (or (or ?v_56 P5) P29)) (or (or ?v_49 ?v_50) ?v_89)) (or (or ?v_52 P45) ?v_53)) (or (or P38 ?v_94) ?v_54)) (or (or ?v_113 ?v_183) ?v_131)) (or (or ?v_23 P23) P31)) (or (or ?v_72 ?v_105) ?v_56)) (or (or ?v_231 ?v_233) P41)) (or (or ?v_143 ?v_57) ?v_58)) (or (or ?v_59 ?v_7) ?v_50)) (or (or ?v_108 ?v_92) ?v_119)) (or (or ?v_103 ?v_61) ?v_62)) (or (or ?v_63 P12) ?v_64)) (or (or ?v_31 P11) ?v_76)) (or (or ?v_65 ?v_66) ?v_170)) (or (or ?v_102 ?v_67) ?v_14)) (or (or ?v_68 ?v_111) ?v_101)) (or (or ?v_71 P42) ?v_219)) (or (or ?v_72 ?v_146) ?v_44)) (or (or ?v_73 ?v_74) P26)) (or (or ?v_197 ?v_88) ?v_140)) (or (or ?v_27 ?v_77) ?v_221)) (or (or ?v_106 ?v_78) ?v_82)) (or (or ?v_29 ?v_44) ?v_79)) (or (or ?v_40 ?v_80) ?v_54)) (or (or ?v_81 ?v_82) ?v_129)) (or (or P32 ?v_83) ?v_100)) (or (or ?v_84 P48) ?v_49)) (or (or ?v_155 ?v_86) ?v_193)) (or (or ?v_19 ?v_114) ?v_29)) (or (or ?v_65 ?v_7) ?v_88)) (or (or ?v_89 ?v_38) ?v_246)) (or (or ?v_122 ?v_65) ?v_226)) (or (or ?v_90 P16) ?v_91)) (or (or ?v_188 ?v_92) ?v_190)) (or (or P4 ?v_13) ?v_232)) (or (or ?v_82 ?v_207) ?v_127)) (or (or ?v_145 ?v_152) ?v_76)) (or (or P27 P43) ?v_95)) (or (or ?v_158 ?v_96) ?v_97)) (or (or ?v_182 P29) ?v_99)) (or (or ?v_100 ?v_101) ?v_218)) (or (or ?v_31 ?v_32) ?v_103)) (or (or ?v_54 ?v_117) P9)) (or (or P21 ?v_33) ?v_21)) (or (or ?v_184 ?v_208) ?v_67)) (or (or ?v_121 ?v_1) ?v_47)) (or (or ?v_57 ?v_104) P24)) (or (or P41 ?v_105) ?v_106)) (or (or ?v_107 ?v_76) ?v_110)) (or (or ?v_108 P21) ?v_87)) (or (or ?v_124 ?v_243) P20)) (or (or ?v_110 ?v_63) ?v_111)) (or (or ?v_112 ?v_259) ?v_111)) (or (or ?v_103 ?v_144) ?v_58)) (or (or ?v_248 ?v_114) P30)) (or (or ?v_86 ?v_36) ?v_68)) (or (or ?v_48 ?v_90) P24)) (or (or ?v_138 ?v_120) ?v_115)) (or (or ?v_198 ?v_13) ?v_161)) (or (or ?v_117 P35) ?v_118)) (or (or ?v_79 P8) ?v_171)) (or (or ?v_119 ?v_120) ?v_16)) (or (or ?v_121 ?v_47) ?v_122)) (or (or ?v_123 ?v_4) ?v_124)) (or (or ?v_120 P44) ?v_125)) (or (or ?v_228 ?v_84) P30)) (or (or ?v_125 ?v_126) ?v_165)) (or (or ?v_122 ?v_73) ?v_128)) (or (or ?v_12 ?v_73) ?v_247)) (or (or ?v_7 ?v_129) ?v_36)) (or (or ?v_130 ?v_20) ?v_38)) (or (or ?v_25 P37) ?v_131)) (or (or ?v_135 ?v_7) P8)) (or (or ?v_79 ?v_35) ?v_205)) (or (or ?v_132 P10) ?v_30)) (or (or ?v_52 P38) ?v_133)) (or (or P47 ?v_160) ?v_133)) (or (or ?v_1 ?v_16) ?v_245)) (or (or ?v_134 ?v_135) ?v_5)) (or (or ?v_136 ?v_137) ?v_127)) (or (or ?v_153 ?v_138) ?v_139)) (or (or ?v_140 ?v_77) ?v_7)) (or (or ?v_141 ?v_142) ?v_200)) (or (or P9 ?v_261) ?v_17)) (or (or ?v_143 ?v_144) ?v_15)) (or (or ?v_96 ?v_82) ?v_145)) (or (or ?v_65 ?v_108) P19)) (or (or ?v_146 ?v_12) ?v_45)) (or (or ?v_255 ?v_147) ?v_76)) (or (or ?v_114 ?v_148) P15)) (or (or ?v_116 ?v_59) ?v_49)) (or (or ?v_120 ?v_149) ?v_148)) (or (or ?v_30 ?v_79) ?v_130)) (or (or ?v_57 ?v_150) ?v_101)) (or (or P24 ?v_151) ?v_152)) (or (or P13 ?v_1) ?v_186)) (or (or ?v_153 ?v_154) P26)) (or (or ?v_156 ?v_50) ?v_127)) (or (or ?v_77 P41) P19)) (or (or ?v_155 ?v_156) P22)) (or (or P11 ?v_90) ?v_157)) (or (or ?v_128 ?v_71) ?v_158)) (or (or ?v_82 ?v_159) ?v_160)) (or (or ?v_143 ?v_104) ?v_148)) (or (or ?v_36 ?v_127) P9)) (or (or ?v_177 ?v_62) ?v_161)) (or (or P17 ?v_162) ?v_50)) (or (or ?v_163 ?v_41) ?v_38)) (or (or P30 ?v_23) P26)) (or (or ?v_160 ?v_152) ?v_168)) (or (or ?v_44 ?v_124) P31)) (or (or ?v_79 ?v_61) ?v_146)) (or (or ?v_5 ?v_164) P32)) (or (or ?v_165 ?v_101) ?v_166)) (or (or ?v_8 ?v_31) ?v_167)) (or (or P11 ?v_240) P33)) (or (or ?v_168 P41) ?v_136)) (or (or ?v_27 ?v_34) ?v_114)) (or (or ?v_29 ?v_169) ?v_128)) (or (or ?v_189 ?v_145) ?v_119)) (or (or ?v_0 ?v_36) ?v_149)) (or (or ?v_87 P5) ?v_170)) (or (or ?v_171 ?v_229) ?v_88)) (or (or ?v_212 P3) ?v_244)) (or (or ?v_81 P46) ?v_179)) (or (or ?v_169 ?v_121) ?v_172)) (or (or P39 ?v_149) ?v_124)) (or (or ?v_173 ?v_136) ?v_108)) (or (or ?v_87 ?v_20) ?v_123)) (or (or ?v_169 ?v_14) ?v_199)) (or (or ?v_132 ?v_174) ?v_217)) (or (or ?v_171 ?v_139) ?v_0)) (or (or ?v_175 ?v_176) ?v_177)) (or (or P4 ?v_54) ?v_151)) (or (or P44 P45) P35)) (or (or P32 P3) ?v_55)) (or (or P35 ?v_8) P13)) (or (or ?v_143 P21) ?v_178)) (or (or ?v_139 ?v_66) ?v_81)) (or (or P28 ?v_83) P11)) (or (or ?v_30 ?v_121) ?v_179)) (or (or ?v_5 ?v_58) P0)) (or (or ?v_130 ?v_72) ?v_116)) (or (or ?v_180 ?v_22) ?v_92)) (or (or ?v_35 ?v_8) ?v_123)) (or (or ?v_181 ?v_182) ?v_69)) (or (or ?v_70 ?v_172) ?v_170)) (or (or P7 P18) ?v_161)) (or (or ?v_70 ?v_105) P44)) (or (or ?v_135 ?v_63) ?v_64)) (or (or P33 ?v_126) ?v_30)) (or (or ?v_47 P49) ?v_136)) (or (or ?v_192 ?v_106) P9)) (or (or ?v_156 ?v_77) ?v_204)) (or (or ?v_235 ?v_112) P22)) (or (or ?v_145 ?v_81) ?v_122)) (or (or ?v_86 ?v_179) P10)) (or (or ?v_184 P43) P28)) (or (or ?v_157 ?v_185) ?v_135)) (or (or ?v_147 ?v_37) ?v_186)) (or (or ?v_57 ?v_24) P7)) (or (or ?v_101 ?v_173) ?v_187)) (or (or ?v_49 ?v_185) P18)) (or (or ?v_41 ?v_44) ?v_69)) (or (or ?v_154 P35) P44)) (or (or P15 ?v_140) ?v_168)) (or (or P41 P20) ?v_173)) (or (or ?v_147 P15) ?v_11)) (or (or ?v_188 ?v_5) ?v_45)) (or (or ?v_133 ?v_189) ?v_52)) (or (or ?v_174 ?v_111) ?v_114)) (or (or ?v_130 ?v_186) ?v_190)) (or (or ?v_88 ?v_234) ?v_65)) (or (or ?v_192 ?v_225) ?v_12)) (or (or ?v_157 ?v_203) ?v_14)) (or (or ?v_122 P42) ?v_167)) (or (or ?v_30 ?v_128) P35)) (or (or ?v_124 ?v_84) ?v_193)) (or (or P43 ?v_115) ?v_105)) (or (or ?v_15 ?v_35) ?v_29)) (or (or ?v_114 ?v_121) ?v_111)) (or (or ?v_182 P10) ?v_188)) (or (or ?v_211 ?v_196) ?v_33)) (or (or ?v_197 ?v_215) ?v_198)) (or (or ?v_199 ?v_210) ?v_20)) (or (or ?v_200 ?v_201) ?v_188)) (or (or ?v_8 ?v_135) ?v_151)) (or (or ?v_117 P32) ?v_202)) (or (or ?v_203 ?v_204) ?v_52)) (or (or P28 ?v_139) ?v_205)) (or (or ?v_206 ?v_190) ?v_122)) (or (or ?v_32 ?v_124) ?v_207)) (or (or ?v_32 P19) ?v_40)) (or (or ?v_208 ?v_31) ?v_171)) (or (or P40 ?v_209) ?v_210)) (or (or ?v_117 P43) ?v_178)) (or (or ?v_175 ?v_67) ?v_86)) (or (or P4 ?v_110) ?v_190)) (or (or ?v_147 ?v_10) P44)) (or (or ?v_62 ?v_211) ?v_212)) (or (or ?v_120 ?v_3) ?v_175)) (or (or ?v_74 ?v_212) ?v_171)) (or (or ?v_183 ?v_162) ?v_143)) (or (or ?v_53 ?v_239) ?v_15)) (or (or ?v_197 ?v_113) ?v_142)) (or (or ?v_125 ?v_120) ?v_171)) (or (or ?v_196 ?v_73) ?v_213)) (or (or ?v_150 ?v_25) ?v_178)) (or (or ?v_108 P44) ?v_200)) (or (or ?v_198 P18) ?v_77)) (or (or ?v_162 ?v_214) ?v_181)) (or (or ?v_127 ?v_108) ?v_63)) (or (or ?v_171 ?v_38) ?v_215)) (or (or ?v_200 ?v_216) ?v_68)) (or (or ?v_22 P21) ?v_111)) (or (or P27 ?v_230) ?v_170)) (or (or P16 ?v_83) ?v_189)) (or (or ?v_180 ?v_183) ?v_124)) (or (or ?v_131 ?v_38) ?v_177)) (or (or ?v_48 P9) ?v_8)) (or (or ?v_39 ?v_44) ?v_207)) (or (or ?v_217 ?v_47) ?v_108)) (or (or ?v_110 ?v_137) ?v_1)) (or (or P39 ?v_187) ?v_122)) (or (or ?v_55 ?v_190) ?v_95)) (or (or P2 ?v_218) ?v_139)) (or (or ?v_166 ?v_72) ?v_165)) (or (or ?v_87 ?v_0) P13)) (or (or ?v_108 ?v_102) ?v_215)) (or (or ?v_124 ?v_58) ?v_209)) (or (or ?v_206 ?v_49) ?v_125)) (or (or ?v_175 ?v_121) ?v_81)) (or (or P39 ?v_190) ?v_96)) (or (or ?v_43 ?v_121) ?v_73)) (or (or ?v_55 ?v_98) ?v_52)) (or (or ?v_183 ?v_60) ?v_130)) (or (or ?v_54 ?v_138) ?v_94)) (or (or ?v_88 ?v_137) P24)) (or (or ?v_34 ?v_143) ?v_198)) (or (or ?v_78 ?v_19) P17)) (or (or ?v_55 ?v_40) ?v_188)) (or (or ?v_219 ?v_115) P27)) (or (or ?v_131 ?v_95) ?v_216)) (or (or ?v_62 ?v_168) ?v_180)) (or (or ?v_210 ?v_103) ?v_199)) (or (or ?v_7 ?v_50) P1)) (or (or ?v_220 ?v_160) ?v_70)) (or (or ?v_132 ?v_108) ?v_121)) (or (or P8 ?v_97) ?v_103)) (or (or ?v_221 ?v_192) ?v_19)) (or (or ?v_54 ?v_23) ?v_222)) (or (or ?v_128 ?v_160) ?v_98)) (or (or ?v_206 ?v_223) ?v_214)) (or (or ?v_257 ?v_89) ?v_118)) (or (or P47 ?v_138) ?v_200)) (or (or ?v_138 ?v_66) ?v_89)) (or (or ?v_118 ?v_36) ?v_30)) (or (or ?v_27 P33) ?v_76)) (or (or ?v_136 ?v_73) ?v_203)) (or (or ?v_186 ?v_224) ?v_48)) (or (or ?v_225 ?v_161) P14)) (or (or ?v_226 ?v_223) P43)) (or (or ?v_180 ?v_19) ?v_74)) (or (or P45 ?v_130) P1)) (or (or ?v_180 ?v_62) P32)) (or (or ?v_221 P6) P44)) (or (or ?v_124 ?v_222) ?v_157)) (or (or P25 ?v_154) P43)) (or (or P33 ?v_14) ?v_121)) (or (or ?v_250 ?v_72) ?v_227)) (or (or ?v_22 ?v_119) ?v_228)) (or (or ?v_38 ?v_229) ?v_97)) (or (or ?v_157 ?v_86) ?v_198)) (or (or ?v_160 ?v_3) ?v_52)) (or (or ?v_198 ?v_213) ?v_116)) (or (or ?v_30 ?v_146) ?v_230)) (or (or ?v_221 ?v_203) ?v_88)) (or (or ?v_14 ?v_208) ?v_206)) (or (or ?v_223 ?v_95) ?v_231)) (or (or P31 ?v_65) P37)) (or (or ?v_132 ?v_57) P48)) (or (or P34 ?v_1) ?v_113)) (or (or ?v_160 ?v_172) ?v_224)) (or (or ?v_36 P34) ?v_48)) (or (or ?v_237 ?v_232) ?v_200)) (or (or ?v_233 ?v_234) ?v_222)) (or (or ?v_235 ?v_169) ?v_236)) (or (or ?v_52 ?v_130) ?v_38)) (or (or ?v_69 ?v_138) P1)) (or (or P12 ?v_237) ?v_44)) (or (or P44 ?v_169) ?v_47)) (or (or P24 ?v_54) ?v_185)) (or (or ?v_53 P2) ?v_22)) (or (or ?v_164 ?v_122) ?v_79)) (or (or ?v_63 ?v_25) P46)) (or (or ?v_122 ?v_141) ?v_227)) (or (or ?v_35 ?v_74) P3)) (or (or ?v_167 ?v_92) ?v_127)) (or (or ?v_204 ?v_236) ?v_252)) (or (or P9 ?v_170) ?v_184)) (or (or ?v_96 ?v_57) ?v_94)) (or (or P39 ?v_193) ?v_168)) (or (or ?v_254 ?v_37) ?v_69)) (or (or ?v_39 P6) ?v_198)) (or (or ?v_174 P9) ?v_205)) (or (or ?v_47 ?v_202) P42)) (or (or ?v_108 P14) ?v_179)) (or (or ?v_238 ?v_219) ?v_97)) (or (or ?v_91 ?v_45) ?v_228)) (or (or ?v_70 ?v_171) ?v_6)) (or (or ?v_7 ?v_149) ?v_69)) (or (or ?v_222 ?v_57) ?v_81)) (or (or P36 ?v_227) ?v_251)) (or (or ?v_158 ?v_143) P42)) (or (or ?v_242 ?v_183) P6)) (or (or ?v_61 ?v_124) ?v_111)) (or (or ?v_169 ?v_60) ?v_220)) (or (or ?v_31 ?v_236) ?v_182)) (or (or ?v_133 ?v_79) ?v_183)) (or (or P3 ?v_143) ?v_47)) (or (or ?v_137 ?v_240) ?v_214)) (or (or ?v_33 ?v_209) ?v_119)) (or (or ?v_125 P37) ?v_160)) (or (or ?v_106 ?v_147) P2)) (or (or ?v_225 ?v_42) ?v_154)) (or (or ?v_241 P17) ?v_94)) (or (or ?v_23 ?v_40) ?v_13)) (or (or ?v_185 ?v_100) ?v_49)) (or (or P47 ?v_242) ?v_87)) (or (or P22 ?v_243) ?v_186)) (or (or ?v_218 ?v_141) ?v_101)) (or (or ?v_172 ?v_244) ?v_8)) (or (or P13 ?v_95) ?v_16)) (or (or ?v_236 ?v_40) P17)) (or (or ?v_73 ?v_83) ?v_79)) (or (or ?v_17 ?v_155) ?v_101)) (or (or ?v_140 ?v_38) ?v_218)) (or (or ?v_222 ?v_260) ?v_4)) (or (or ?v_197 ?v_131) ?v_127)) (or (or ?v_208 ?v_166) ?v_119)) (or (or ?v_147 ?v_101) P39)) (or (or P20 ?v_111) ?v_121)) (or (or P25 ?v_96) P10)) (or (or ?v_108 ?v_240) ?v_11)) (or (or ?v_141 ?v_119) ?v_57)) (or (or ?v_95 ?v_60) ?v_107)) (or (or P38 ?v_231) P2)) (or (or ?v_190 ?v_35) ?v_245)) (or (or ?v_227 ?v_146) ?v_133)) (or (or ?v_158 P17) P48)) (or (or ?v_246 P42) ?v_180)) (or (or ?v_65 ?v_159) ?v_247)) (or (or ?v_163 ?v_127) ?v_117)) (or (or ?v_154 ?v_17) P44)) (or (or P36 ?v_106) ?v_77)) (or (or ?v_80 ?v_192) ?v_106)) (or (or P3 ?v_201) ?v_29)) (or (or ?v_141 ?v_48) ?v_99)) (or (or ?v_256 ?v_6) ?v_72)) (or (or P13 ?v_45) P9)) (or (or ?v_56 ?v_69) ?v_218)) (or (or ?v_175 ?v_155) ?v_111)) (or (or ?v_71 P4) ?v_73)) (or (or ?v_235 ?v_50) ?v_20)) (or (or P22 ?v_180) ?v_201)) (or (or ?v_53 ?v_64) P19)) (or (or ?v_187 P18) ?v_6)) (or (or ?v_205 ?v_197) ?v_119)) (or (or ?v_244 ?v_16) ?v_237)) (or (or P15 P19) ?v_44)) (or (or ?v_218 ?v_90) ?v_106)) (or (or ?v_71 ?v_141) ?v_232)) (or (or ?v_102 ?v_69) ?v_248)) (or (or ?v_133 P33) P35)) (or (or P28 ?v_184) ?v_133)) (or (or ?v_196 P3) ?v_214)) (or (or ?v_227 ?v_76) ?v_204)) (or (or ?v_4 ?v_225) ?v_156)) (or (or ?v_186 ?v_249) P1)) (or (or ?v_232 P8) P3)) (or (or ?v_96 ?v_185) ?v_104)) (or (or P8 ?v_165) ?v_21)) (or (or P2 ?v_11) P35)) (or (or ?v_238 ?v_64) ?v_4)) (or (or ?v_36 ?v_96) ?v_86)) (or (or ?v_250 ?v_11) ?v_153)) (or (or ?v_150 ?v_115) ?v_258)) (or (or ?v_251 ?v_206) ?v_58)) (or (or ?v_169 ?v_197) P0)) (or (or ?v_123 P33) ?v_35)) (or (or ?v_112 P44) ?v_77)) (or (or ?v_31 ?v_181) ?v_42)) (or (or ?v_196 ?v_78) ?v_210)) (or (or ?v_246 ?v_242) ?v_217)) (or (or ?v_100 P13) P41)) (or (or ?v_170 ?v_206) ?v_171)) (or (or ?v_115 P45) ?v_124)) (or (or ?v_241 ?v_156) ?v_219)) (or (or ?v_208 ?v_213) ?v_204)) (or (or ?v_180 ?v_227) ?v_240)) (or (or ?v_154 P30) ?v_128)) (or (or ?v_252 ?v_242) ?v_247)) (or (or ?v_198 ?v_242) P30)) (or (or P11 ?v_118) ?v_31)) (or (or ?v_169 ?v_65) ?v_159)) (or (or ?v_246 P39) ?v_171)) (or (or ?v_161 ?v_182) ?v_206)) (or (or P21 ?v_41) ?v_133)) (or (or ?v_144 ?v_230) ?v_114)) (or (or ?v_145 ?v_130) ?v_90)) (or (or ?v_22 P43) ?v_7)) (or (or ?v_140 ?v_206) ?v_113)) (or (or ?v_100 ?v_205) ?v_76)) (or (or ?v_223 ?v_172) ?v_42)) (or (or P20 ?v_218) ?v_132)) (or (or ?v_206 ?v_4) P1)) (or (or ?v_217 ?v_231) ?v_253)) (or (or ?v_208 ?v_243) ?v_170)) (or (or P1 P44) ?v_165)) (or (or P0 ?v_171) ?v_254)) (or (or ?v_210 P36) ?v_44)) (or (or ?v_229 ?v_32) ?v_171)) (or (or ?v_154 P2) P34)) (or (or ?v_163 P38) ?v_181)) (or (or ?v_86 ?v_39) P4)) (or (or ?v_106 ?v_58) ?v_224)) (or (or ?v_129 ?v_205) ?v_72)) (or (or ?v_245 ?v_80) ?v_188)) (or (or ?v_92 ?v_237) ?v_64)) (or (or ?v_79 ?v_92) ?v_131)) (or (or ?v_208 ?v_59) ?v_155)) (or (or P22 ?v_255) P12)) (or (or P41 P21) ?v_110)) (or (or ?v_73 P45) ?v_242)) (or (or ?v_12 ?v_211) ?v_190)) (or (or ?v_131 ?v_29) P16)) (or (or ?v_103 ?v_131) ?v_108)) (or (or ?v_99 P20) ?v_142)) (or (or P42 P33) P8)) (or (or ?v_157 ?v_115) ?v_29)) (or (or ?v_187 P10) ?v_124)) (or (or ?v_247 ?v_230) ?v_221)) (or (or ?v_176 ?v_59) ?v_200)) (or (or P32 ?v_97) ?v_52)) (or (or ?v_47 ?v_228) ?v_237)) (or (or ?v_88 ?v_246) ?v_131)) (or (or ?v_226 ?v_231) ?v_168)) (or (or P46 ?v_59) ?v_25)) (or (or ?v_136 ?v_48) P15)) (or (or ?v_170 ?v_74) ?v_155)) (or (or P41 ?v_71) ?v_200)) (or (or ?v_105 ?v_105) ?v_155)) (or (or P45 ?v_256) ?v_13)) (or (or ?v_199 ?v_201) ?v_53)) (or (or ?v_7 ?v_227) ?v_208)) (or (or ?v_13 ?v_58) ?v_100)) (or (or ?v_69 P30) ?v_121)) (or (or ?v_146 ?v_168) ?v_180)) (or (or ?v_107 ?v_53) ?v_23)) (or (or P41 P33) ?v_114)) (or (or ?v_229 ?v_232) ?v_161)) (or (or P7 ?v_215) ?v_142)) (or (or ?v_208 ?v_82) ?v_202)) (or (or ?v_38 P25) ?v_243)) (or (or ?v_112 ?v_250) ?v_121)) (or (or ?v_189 ?v_193) ?v_147)) (or (or ?v_137 ?v_182) ?v_151)) (or (or ?v_139 ?v_35) ?v_111)) (or (or ?v_171 ?v_232) ?v_240)) (or (or ?v_159 ?v_159) ?v_20)) (or (or P38 ?v_226) P22)) (or (or ?v_1 ?v_162) ?v_250)) (or (or ?v_40 ?v_24) ?v_137)) (or (or P47 ?v_198) ?v_122)) (or (or ?v_111 ?v_151) ?v_8)) (or (or ?v_142 ?v_167) ?v_162)) (or (or ?v_88 ?v_83) ?v_11)) (or (or P43 ?v_140) ?v_60)) (or (or P30 ?v_25) ?v_231)) (or (or ?v_179 P2) ?v_17)) (or (or ?v_257 ?v_119) ?v_39)) (or (or ?v_232 ?v_159) P22)) (or (or ?v_186 ?v_123) ?v_233)) (or (or ?v_153 P14) P26)) (or (or ?v_208 ?v_61) ?v_222)) (or (or ?v_257 ?v_9) ?v_38)) (or (or ?v_11 ?v_24) ?v_257)) (or (or ?v_254 P48) ?v_145)) (or (or P8 ?v_130) P25)) (or (or ?v_23 ?v_86) ?v_220)) (or (or ?v_227 ?v_53) ?v_47)) (or (or P34 ?v_152) ?v_175)) (or (or ?v_154 ?v_25) P11)) (or (or ?v_0 P46) ?v_214)) (or (or P34 ?v_9) ?v_174)) (or (or ?v_108 ?v_214) ?v_58)) (or (or P3 ?v_27) P19)) (or (or P43 P2) P25)) (or (or ?v_53 ?v_228) ?v_258)) (or (or ?v_146 ?v_180) ?v_259)) (or (or ?v_236 ?v_120) ?v_106)) (or (or P15 P31) P19)) (or (or ?v_246 ?v_95) ?v_86)) (or (or ?v_260 ?v_38) ?v_12)) (or (or ?v_0 ?v_128) ?v_212)) (or (or P21 ?v_205) ?v_23)) (or (or ?v_198 ?v_135) ?v_97)) (or (or ?v_41 P21) ?v_24)) (or (or ?v_82 ?v_233) ?v_142)) (or (or ?v_209 ?v_58) ?v_211)) (or (or ?v_157 ?v_117) ?v_27)) (or (or ?v_188 ?v_178) P11)) (or (or ?v_226 ?v_27) ?v_64)) (or (or P10 P24) ?v_56)) (or (or ?v_32 ?v_150) ?v_154)) (or (or ?v_120 ?v_12) ?v_34)) (or (or P9 ?v_89) ?v_234)) (or (or ?v_187 ?v_30) ?v_166)) (or (or ?v_118 ?v_102) ?v_96)) (or (or ?v_248 ?v_230) ?v_121)) (or (or ?v_171 P16) ?v_27)) (or (or ?v_81 ?v_238) ?v_168)) (or (or ?v_97 ?v_169) ?v_187)) (or (or ?v_74 ?v_56) ?v_249)) (or (or ?v_54 ?v_245) P45)) (or (or P16 P31) ?v_9)) (or (or ?v_213 ?v_81) ?v_57)) (or (or ?v_257 ?v_27) ?v_82)) (or (or P17 ?v_69) ?v_145)) (or (or ?v_135 ?v_25) ?v_148)) (or (or P11 ?v_5) ?v_94)) (or (or P23 P40) ?v_219)) (or (or ?v_163 ?v_64) P20)) (or (or P14 ?v_261) ?v_198)) (or (or ?v_262 ?v_161) ?v_225)) (or (or ?v_196 P14) ?v_81)) (or (or ?v_66 ?v_223) ?v_156)) (or (or ?v_231 P24) ?v_241)) (or (or P1 ?v_258) ?v_30)) (or (or ?v_155 ?v_238) ?v_208)) (or (or ?v_214 ?v_212) P42)) (or (or P17 ?v_146) ?v_239)) (or (or ?v_171 ?v_124) ?v_239)) (or (or ?v_169 ?v_148) ?v_68)) (or (or ?v_54 ?v_240) ?v_94))))))))))))))))))))))))))))))))))))
(check-sat)
(exit)
